networks/zoo_90_1584/zoo_90_1584-lower.txt
Number of groups: 43
Flow 1: {1 2 0} {2 47 0} 
Flow 2: {1 4 0} {4 3 0} {3 48 0} 
Flow 3: {4 49 0} 
Flow 4: {2 7 0} {7 6 0} {6 5 0} {5 50 0} 
Flow 5: {7 52 0} 
Flow 6: {7 8 0} {8 53 0} 
Flow 7: {6 9 0} {9 54 0} 
Flow 8: {6 10 0} {10 55 0} 
Flow 9: {1 13 0} {13 14 0} {14 11 0} {11 56 0} 
Flow 10: {14 12 0} {12 57 0} 
Flow 11: {13 58 0} 
Flow 12: {14 59 0} 
Flow 13: {3 15 0} {15 60 0} 
Flow 14: {15 16 0} {16 61 0} 
Flow 15: {15 17 0} {17 62 0} 
Flow 16: {3 37 0} {37 36 0} {36 18 0} {18 63 0} 
Flow 17: {11 19 0} {19 64 0} 
Flow 18: {14 22 0} {22 25 0} {25 21 0} {21 66 0} 
Flow 19: {22 67 0} 
Flow 20: {25 23 0} {23 68 0} 
Flow 21: {21 24 0} {24 69 0} 
Flow 22: {25 70 0} 
Flow 23: {13 27 0} {27 26 0} {26 71 0} 
Flow 24: {27 72 0} 
Flow 25: {2 28 0} {28 73 0} 
Flow 26: {28 35 0} {35 29 0} {29 74 0} 
Flow 27: {5 38 0} {38 30 0} {30 75 0} 
Flow 28: {28 31 0} {31 76 0} 
Flow 29: {27 32 0} {32 77 0} 
Flow 30: {35 33 0} {33 78 0} 
Flow 31: {35 34 0} {34 79 0} 
Flow 32: {35 80 0} 
Flow 33: {36 81 0} 
Flow 34: {37 82 0} 
Flow 35: {5 40 0} {40 39 0} {39 84 0} 
Flow 36: {40 85 0} 
Flow 37: {9 41 0} {41 86 0} 
Flow 38: {37 44 0} {44 42 0} {42 87 0} 
Flow 39: {44 43 0} {43 88 0} 
Flow 40: {44 89 0} 
Flow 41: {36 45 0} {45 90 0} 
Flow 42: {2 1 0} {1 46 0} 
Flow 76: {38 83 0} 
Flow 80: {41 42 0} Flow 84: {3 4 0} {4 1 0} Flow 90: {42 41 0} {41 9 0} Flow 92: {15 14 0} Flow 99: {18 19 0} Flow 100: {18 25 0} Flow 111: {22 32 0} Flow 112: {32 33 0} Flow 113: {32 34 0} Flow 156: {5 6 0} {6 7 0} {7 2 0} Flow 161: {6 8 0} Flow 167: {44 37 0} {37 15 0} {42 44 0} Flow 193: {42 43 0} Flow 195: {44 45 0} Flow 280: {8 7 0} Flow 284: {8 6 0} Flow 320: {9 6 0} Flow 322: {37 3 0} Flow 327: {9 10 0} Flow 361: {10 6 0} Flow 371: {10 9 0} Flow 372: {11 14 0} {14 13 0} {13 1 0} Flow 374: {14 15 0} {15 3 0} Flow 384: {19 18 0} {18 17 0} Flow 387: {19 20 0} {20 21 0} Flow 395: {33 35 0} Flow 401: {18 36 0} Flow 402: {15 37 0} Flow 410: {12 14 0} Flow 423: {12 22 0} {25 18 0} Flow 430: {32 27 0} Flow 432: {35 28 0} Flow 505: {17 18 0} Flow 529: {16 15 0} Flow 542: {16 36 0} Flow 568: {17 15 0} Flow 612: {36 37 0} Flow 617: {19 11 0} Flow 618: {25 22 0} {22 12 0} Flow 622: {36 16 0} Flow 690: {20 19 0} Flow 708: {21 25 0} Flow 709: {21 23 0} Flow 731: {22 14 0} Flow 740: {21 20 0} Flow 813: {23 25 0} Flow 825: {23 21 0} Flow 848: {24 21 0} Flow 925: {26 27 0} {27 13 0} Flow 933: {32 22 0} Flow 993: {28 2 0} Flow 1007: {33 32 0} Flow 1032: {29 35 0} Flow 1050: {29 31 0} Flow 1062: {30 38 0} {38 5 0} Flow 1089: {38 39 0} Flow 1096: {31 28 0} Flow 1121: {31 29 0} Flow 1208: {33 34 0} Flow 1219: {34 32 0} Flow 1220: {34 35 0} Flow 1249: {34 33 0} Flow 1382: {39 38 0} Flow 1416: {39 40 0} Flow 1422: {40 5 0} Flow 1505: {43 44 0} Flow 1508: {43 42 0} Flow 1552: {45 36 0} Flow 1555: {45 44 0} Time taken running everything: 0 seconds
