networks/zoo_90_1584/zoo_90_1584-lower.sol
<?xml version = "1.0" encoding="UTF-8" standalone="yes"?>
<CPLEXSolution version="1.2">
 <header
   problemName="networks/zoo_90_1584/zoo_90_1584-lower.lp"
   solutionName="incumbent"
   solutionIndex="-1"
   objectiveValue="43"
   solutionTypeValue="3"
   solutionTypeString="primal"
   solutionStatusValue="101"
   solutionStatusString="integer optimal solution"
   solutionMethodString="mip"
   primalFeasible="1"
   dualFeasible="1"
   MIPNodes="0"
   MIPIterations="0"
   writeLevel="3"/>
 <quality
   epInt="1.0000000000000001e-05"
   epRHS="9.9999999999999995e-07"
   maxIntInfeas="0"
   maxPrimalInfeas="0"
   maxX="1"
   maxSlack="1"/>
 <variables>
  <variable name="Y(1,2)" index="1" value="1"/>
  <variable name="Y(2,3)" index="90" value="1"/>
  <variable name="Y(3,4)" index="179" value="1"/>
  <variable name="Y(4,5)" index="268" value="1"/>
  <variable name="Y(5,7)" index="358" value="1"/>
  <variable name="Y(6,8)" index="447" value="1"/>
  <variable name="Y(7,9)" index="536" value="1"/>
  <variable name="Y(8,10)" index="625" value="1"/>
  <variable name="Y(9,11)" index="714" value="1"/>
  <variable name="Y(10,12)" index="803" value="1"/>
  <variable name="Y(11,13)" index="892" value="1"/>
  <variable name="Y(12,14)" index="981" value="1"/>
  <variable name="Y(13,15)" index="1070" value="1"/>
  <variable name="Y(14,16)" index="1159" value="1"/>
  <variable name="Y(15,17)" index="1248" value="1"/>
  <variable name="Y(16,18)" index="1337" value="1"/>
  <variable name="Y(17,19)" index="1426" value="1"/>
  <variable name="Y(18,21)" index="1516" value="1"/>
  <variable name="Y(19,22)" index="1605" value="1"/>
  <variable name="Y(20,23)" index="1694" value="1"/>
  <variable name="Y(21,24)" index="1783" value="1"/>
  <variable name="Y(22,25)" index="1872" value="1"/>
  <variable name="Y(23,26)" index="1961" value="1"/>
  <variable name="Y(24,27)" index="2050" value="1"/>
  <variable name="Y(25,28)" index="2139" value="1"/>
  <variable name="Y(26,29)" index="2228" value="1"/>
  <variable name="Y(27,30)" index="2317" value="1"/>
  <variable name="Y(28,31)" index="2406" value="1"/>
  <variable name="Y(29,32)" index="2495" value="1"/>
  <variable name="Y(30,33)" index="2584" value="1"/>
  <variable name="Y(31,34)" index="2673" value="1"/>
  <variable name="Y(32,35)" index="2762" value="1"/>
  <variable name="Y(33,36)" index="2851" value="1"/>
  <variable name="Y(34,37)" index="2940" value="1"/>
  <variable name="Y(35,39)" index="3030" value="1"/>
  <variable name="Y(36,40)" index="3119" value="1"/>
  <variable name="Y(37,41)" index="3208" value="1"/>
  <variable name="Y(38,42)" index="3297" value="1"/>
  <variable name="Y(39,43)" index="3386" value="1"/>
  <variable name="Y(40,44)" index="3475" value="1"/>
  <variable name="Y(41,45)" index="3564" value="1"/>
  <variable name="Y(42,1)" index="3608" value="1"/>
  <variable name="Y(76,38)" index="6637" value="1"/>
  <variable name="X(1,2,1)" index="139392" value="1"/>
  <variable name="X(1,4,2)" index="140977" value="1"/>
  <variable name="X(1,13,9)" index="142568" value="1"/>
  <variable name="X(1,46,42)" index="144185" value="1"/>
  <variable name="X(2,1,42)" index="145769" value="1"/>
  <variable name="X(2,7,4)" index="147315" value="1"/>
  <variable name="X(2,28,25)" index="148920" value="1"/>
  <variable name="X(2,47,1)" index="150480" value="1"/>
  <variable name="X(3,4,84)" index="152147" value="1"/>
  <variable name="X(3,15,13)" index="153660" value="1"/>
  <variable name="X(3,37,16)" index="155247" value="1"/>
  <variable name="X(3,48,2)" index="156817" value="1"/>
  <variable name="X(4,1,84)" index="158483" value="1"/>
  <variable name="X(4,3,2)" index="159985" value="1"/>
  <variable name="X(4,49,3)" index="161570" value="1"/>
  <variable name="X(5,6,156)" index="163307" value="1"/>
  <variable name="X(5,38,27)" index="164762" value="1"/>
  <variable name="X(5,40,35)" index="166354" value="1"/>
  <variable name="X(5,50,4)" index="167907" value="1"/>
  <variable name="X(6,5,4)" index="169491" value="1"/>
  <variable name="X(6,7,156)" index="171227" value="1"/>
  <variable name="X(6,8,161)" index="172816" value="1"/>
  <variable name="X(6,9,7)" index="174246" value="1"/>
  <variable name="X(6,10,8)" index="175831" value="1"/>
  <variable name="X(7,2,156)" index="177563" value="1"/>
  <variable name="X(7,6,4)" index="178995" value="1"/>
  <variable name="X(7,8,6)" index="180581" value="1"/>
  <variable name="X(7,52,5)" index="182164" value="1"/>
  <variable name="X(8,6,284)" index="184027" value="1"/>
  <variable name="X(8,7,280)" index="185607" value="1"/>
  <variable name="X(8,53,6)" index="186917" value="1"/>
  <variable name="X(9,6,320)" index="188815" value="1"/>
  <variable name="X(9,10,327)" index="190406" value="1"/>
  <variable name="X(9,41,37)" index="191700" value="1"/>
  <variable name="X(9,54,7)" index="193254" value="1"/>
  <variable name="X(10,6,361)" index="195192" value="1"/>
  <variable name="X(10,9,371)" index="196786" value="1"/>
  <variable name="X(10,55,8)" index="198007" value="1"/>
  <variable name="X(11,14,372)" index="199955" value="1"/>
  <variable name="X(11,19,17)" index="201184" value="1"/>
  <variable name="X(11,56,9)" index="202760" value="1"/>
  <variable name="X(12,14,410)" index="204745" value="1"/>
  <variable name="X(12,22,423)" index="206342" value="1"/>
  <variable name="X(12,57,10)" index="207513" value="1"/>
  <variable name="X(13,1,372)" index="209459" value="1"/>
  <variable name="X(13,14,9)" index="210680" value="1"/>
  <variable name="X(13,27,23)" index="212278" value="1"/>
  <variable name="X(13,58,11)" index="213850" value="1"/>
  <variable name="X(14,11,9)" index="215432" value="1"/>
  <variable name="X(14,12,10)" index="217017" value="1"/>
  <variable name="X(14,13,372)" index="218963" value="1"/>
  <variable name="X(14,15,374)" index="220549" value="1"/>
  <variable name="X(14,22,18)" index="221777" value="1"/>
  <variable name="X(14,59,12)" index="223355" value="1"/>
  <variable name="X(15,3,374)" index="225301" value="1"/>
  <variable name="X(15,14,92)" index="226603" value="1"/>
  <variable name="X(15,16,14)" index="228109" value="1"/>
  <variable name="X(15,17,15)" index="229694" value="1"/>
  <variable name="X(15,37,402)" index="231665" value="1"/>
  <variable name="X(15,60,13)" index="232860" value="1"/>
  <variable name="X(16,15,529)" index="234960" value="1"/>
  <variable name="X(16,36,542)" index="236557" value="1"/>
  <variable name="X(16,61,14)" index="237613" value="1"/>
  <variable name="X(17,15,568)" index="239751" value="1"/>
  <variable name="X(17,18,505)" index="241272" value="1"/>
  <variable name="X(17,62,15)" index="242366" value="1"/>
  <variable name="X(18,17,384)" index="244319" value="1"/>
  <variable name="X(18,19,99)" index="245618" value="1"/>
  <variable name="X(18,25,100)" index="247203" value="1"/>
  <variable name="X(18,36,401)" index="249088" value="1"/>
  <variable name="X(18,63,16)" index="250287" value="1"/>
  <variable name="X(19,11,617)" index="252472" value="1"/>
  <variable name="X(19,18,384)" index="253823" value="1"/>
  <variable name="X(19,20,387)" index="255410" value="1"/>
  <variable name="X(19,64,17)" index="256624" value="1"/>
  <variable name="X(20,19,690)" index="258881" value="1"/>
  <variable name="X(20,21,387)" index="260162" value="1"/>
  <variable name="X(21,20,740)" index="262099" value="1"/>
  <variable name="X(21,23,709)" index="263652" value="1"/>
  <variable name="X(21,24,21)" index="264548" value="1"/>
  <variable name="X(21,25,708)" index="266819" value="1"/>
  <variable name="X(21,66,18)" index="267713" value="1"/>
  <variable name="X(22,12,618)" index="269897" value="1"/>
  <variable name="X(22,14,731)" index="271594" value="1"/>
  <variable name="X(22,25,18)" index="272465" value="1"/>
  <variable name="X(22,32,111)" index="274142" value="1"/>
  <variable name="X(22,67,19)" index="275634" value="1"/>
  <variable name="X(23,21,825)" index="278024" value="1"/>
  <variable name="X(23,25,813)" index="279596" value="1"/>
  <variable name="X(23,68,20)" index="280387" value="1"/>
  <variable name="X(24,21,848)" index="282799" value="1"/>
  <variable name="X(24,69,21)" index="283556" value="1"/>
  <variable name="X(25,18,423)" index="285542" value="1"/>
  <variable name="X(25,21,18)" index="286721" value="1"/>
  <variable name="X(25,22,618)" index="288905" value="1"/>
  <variable name="X(25,23,20)" index="289891" value="1"/>
  <variable name="X(25,70,22)" index="291477" value="1"/>
  <variable name="X(26,27,925)" index="293964" value="1"/>
  <variable name="X(26,71,23)" index="294646" value="1"/>
  <variable name="X(27,13,925)" index="297132" value="1"/>
  <variable name="X(27,26,23)" index="297814" value="1"/>
  <variable name="X(27,32,29)" index="299404" value="1"/>
  <variable name="X(27,72,24)" index="300983" value="1"/>
  <variable name="X(28,2,993)" index="303536" value="1"/>
  <variable name="X(28,31,28)" index="304155" value="1"/>
  <variable name="X(28,35,26)" index="305737" value="1"/>
  <variable name="X(28,73,25)" index="307320" value="1"/>
  <variable name="X(29,31,1050)" index="309929" value="1"/>
  <variable name="X(29,35,1032)" index="311495" value="1"/>
  <variable name="X(29,74,26)" index="312073" value="1"/>
  <variable name="X(30,38,1062)" index="314693" value="1"/>
  <variable name="X(30,75,27)" index="315242" value="1"/>
  <variable name="X(31,28,1096)" index="317895" value="1"/>
  <variable name="X(31,29,1121)" index="319504" value="1"/>
  <variable name="X(31,76,28)" index="319995" value="1"/>
  <variable name="X(32,22,933)" index="322484" value="1"/>
  <variable name="X(32,27,430)" index="323565" value="1"/>
  <variable name="X(32,33,112)" index="324831" value="1"/>
  <variable name="X(32,34,113)" index="326416" value="1"/>
  <variable name="X(32,77,29)" index="327916" value="1"/>
  <variable name="X(33,32,1007)" index="330478" value="1"/>
  <variable name="X(33,34,1208)" index="332263" value="1"/>
  <variable name="X(33,35,395)" index="333034" value="1"/>
  <variable name="X(33,78,30)" index="334253" value="1"/>
  <variable name="X(34,32,1219)" index="337026" value="1"/>
  <variable name="X(34,33,1249)" index="338640" value="1"/>
  <variable name="X(34,35,1220)" index="340195" value="1"/>
  <variable name="X(34,79,31)" index="340590" value="1"/>
  <variable name="X(35,28,432)" index="342575" value="1"/>
  <variable name="X(35,29,26)" index="343753" value="1"/>
  <variable name="X(35,33,30)" index="345341" value="1"/>
  <variable name="X(35,34,31)" index="346926" value="1"/>
  <variable name="X(35,80,32)" index="348511" value="1"/>
  <variable name="X(36,16,622)" index="350685" value="1"/>
  <variable name="X(36,18,16)" index="351663" value="1"/>
  <variable name="X(36,37,612)" index="353843" value="1"/>
  <variable name="X(36,45,41)" index="354856" value="1"/>
  <variable name="X(36,81,33)" index="356432" value="1"/>
  <variable name="X(37,3,322)" index="358305" value="1"/>
  <variable name="X(37,15,167)" index="359734" value="1"/>
  <variable name="X(37,36,16)" index="361167" value="1"/>
  <variable name="X(37,44,38)" index="362773" value="1"/>
  <variable name="X(37,82,34)" index="364353" value="1"/>
  <variable name="X(38,5,1062)" index="366965" value="1"/>
  <variable name="X(38,30,27)" index="367514" value="1"/>
  <variable name="X(38,39,1089)" index="370160" value="1"/>
  <variable name="X(38,83,76)" index="370731" value="1"/>
  <variable name="X(39,38,1382)" index="373621" value="1"/>
  <variable name="X(39,40,1416)" index="375239" value="1"/>
  <variable name="X(39,84,35)" index="375442" value="1"/>
  <variable name="X(40,5,1422)" index="378413" value="1"/>
  <variable name="X(40,39,35)" index="378610" value="1"/>
  <variable name="X(40,85,36)" index="380195" value="1"/>
  <variable name="X(41,9,90)" index="381833" value="1"/>
  <variable name="X(41,42,80)" index="383407" value="1"/>
  <variable name="X(41,86,37)" index="384948" value="1"/>
  <variable name="X(42,41,90)" index="386585" value="1"/>
  <variable name="X(42,43,193)" index="388272" value="1"/>
  <variable name="X(42,44,167)" index="389830" value="1"/>
  <variable name="X(42,87,38)" index="391285" value="1"/>
  <variable name="X(43,42,1508)" index="394339" value="1"/>
  <variable name="X(43,44,1505)" index="395920" value="1"/>
  <variable name="X(43,88,39)" index="396038" value="1"/>
  <variable name="X(44,37,167)" index="397750" value="1"/>
  <variable name="X(44,42,38)" index="399205" value="1"/>
  <variable name="X(44,43,39)" index="400790" value="1"/>
  <variable name="X(44,45,195)" index="402530" value="1"/>
  <variable name="X(44,89,40)" index="403959" value="1"/>
  <variable name="X(45,36,1552)" index="407055" value="1"/>
  <variable name="X(45,44,1555)" index="408642" value="1"/>
  <variable name="X(45,90,41)" index="408712" value="1"/>
 </variables>
</CPLEXSolution>
